p cnf 246 840
1 13 25 7 19 31 0
37 49 61 43 55 67 0
2 14 26 8 20 32 0
38 50 62 44 56 68 0
3 15 27 9 21 33 0
39 51 63 45 57 69 0
4 16 28 10 22 34 0
40 52 64 46 58 70 0
5 17 29 11 23 35 0
41 53 65 47 59 71 0
6 18 30 12 24 36 0
42 54 66 48 60 72 0
-1 -7 -181 0
-13 -19 -193 0
-25 -31 -205 0
-37 -43 -217 0
-49 -55 -229 0
-61 -67 -241 0
-2 -8 -182 0
-14 -20 -194 0
-26 -32 -206 0
-38 -44 -218 0
-50 -56 -230 0
-62 -68 -242 0
-3 -9 -183 0
-15 -21 -195 0
-27 -33 -207 0
-39 -45 -219 0
-51 -57 -231 0
-63 -69 -243 0
-4 -10 -184 0
-16 -22 -196 0
-28 -34 -208 0
-40 -46 -220 0
-52 -58 -232 0
-64 -70 -244 0
-5 -11 -185 0
-17 -23 -197 0
-29 -35 -209 0
-41 -47 -221 0
-53 -59 -233 0
-65 -71 -245 0
-6 -12 -186 0
-18 -24 -198 0
-30 -36 -210 0
-42 -48 -222 0
-54 -60 -234 0
-66 -72 -246 0
-181 -193 0
-181 -205 0
-193 -181 0
-193 -205 0
-205 -181 0
-205 -193 0
-1 -13 0
-1 -19 0
-1 -25 0
-1 -31 0
-13 -25 0
-13 -31 0
-7 -13 0
-7 -19 0
-7 -25 0
-7 -31 0
-19 -25 0
-19 -31 0
-37 -49 0
-37 -55 0
-37 -61 0
-37 -67 0
-49 -61 0
-49 -67 0
-43 -49 0
-43 -55 0
-43 -61 0
-43 -67 0
-55 -61 0
-55 -67 0
-2 -14 0
-2 -20 0
-2 -26 0
-2 -32 0
-14 -26 0
-14 -32 0
-8 -14 0
-8 -20 0
-8 -26 0
-8 -32 0
-20 -26 0
-20 -32 0
-38 -50 0
-38 -56 0
-38 -62 0
-38 -68 0
-50 -62 0
-50 -68 0
-44 -50 0
-44 -56 0
-44 -62 0
-44 -68 0
-56 -62 0
-56 -68 0
-3 -15 0
-3 -21 0
-3 -27 0
-3 -33 0
-15 -27 0
-15 -33 0
-9 -15 0
-9 -21 0
-9 -27 0
-9 -33 0
-21 -27 0
-21 -33 0
-39 -51 0
-39 -57 0
-39 -63 0
-39 -69 0
-51 -63 0
-51 -69 0
-45 -51 0
-45 -57 0
-45 -63 0
-45 -69 0
-57 -63 0
-57 -69 0
-4 -16 0
-4 -22 0
-4 -28 0
-4 -34 0
-16 -28 0
-16 -34 0
-10 -16 0
-10 -22 0
-10 -28 0
-10 -34 0
-22 -28 0
-22 -34 0
-40 -52 0
-40 -58 0
-40 -64 0
-40 -70 0
-52 -64 0
-52 -70 0
-46 -52 0
-46 -58 0
-46 -64 0
-46 -70 0
-58 -64 0
-58 -70 0
-5 -17 0
-5 -23 0
-5 -29 0
-5 -35 0
-17 -29 0
-17 -35 0
-11 -17 0
-11 -23 0
-11 -29 0
-11 -35 0
-23 -29 0
-23 -35 0
-41 -53 0
-41 -59 0
-41 -65 0
-41 -71 0
-53 -65 0
-53 -71 0
-47 -53 0
-47 -59 0
-47 -65 0
-47 -71 0
-59 -65 0
-59 -71 0
-6 -18 0
-6 -24 0
-6 -30 0
-6 -36 0
-18 -30 0
-18 -36 0
-12 -18 0
-12 -24 0
-12 -30 0
-12 -36 0
-24 -30 0
-24 -36 0
-42 -54 0
-42 -60 0
-42 -66 0
-42 -72 0
-54 -66 0
-54 -72 0
-48 -54 0
-48 -60 0
-48 -66 0
-48 -72 0
-60 -66 0
-60 -72 0
1 2 3 4 5 6 0
7 8 9 10 11 12 0
13 14 15 16 17 18 0
19 20 21 22 23 24 0
25 26 27 28 29 30 0
31 32 33 34 35 36 0
37 38 39 40 41 42 0
43 44 45 46 47 48 0
49 50 51 52 53 54 0
55 56 57 58 59 60 0
61 62 63 64 65 66 0
67 68 69 70 71 72 0
-1 -2 0
-1 -3 0
-1 -4 0
-1 -5 0
-1 -6 0
-2 -3 0
-2 -4 0
-2 -5 0
-2 -6 0
-3 -4 0
-3 -5 0
-3 -6 0
-4 -5 0
-4 -6 0
-5 -6 0
-7 -8 0
-7 -9 0
-7 -10 0
-7 -11 0
-7 -12 0
-8 -9 0
-8 -10 0
-8 -11 0
-8 -12 0
-9 -10 0
-9 -11 0
-9 -12 0
-10 -11 0
-10 -12 0
-11 -12 0
-13 -14 0
-13 -15 0
-13 -16 0
-13 -17 0
-13 -18 0
-14 -15 0
-14 -16 0
-14 -17 0
-14 -18 0
-15 -16 0
-15 -17 0
-15 -18 0
-16 -17 0
-16 -18 0
-17 -18 0
-19 -20 0
-19 -21 0
-19 -22 0
-19 -23 0
-19 -24 0
-20 -21 0
-20 -22 0
-20 -23 0
-20 -24 0
-21 -22 0
-21 -23 0
-21 -24 0
-22 -23 0
-22 -24 0
-23 -24 0
-25 -26 0
-25 -27 0
-25 -28 0
-25 -29 0
-25 -30 0
-26 -27 0
-26 -28 0
-26 -29 0
-26 -30 0
-27 -28 0
-27 -29 0
-27 -30 0
-28 -29 0
-28 -30 0
-29 -30 0
-31 -32 0
-31 -33 0
-31 -34 0
-31 -35 0
-31 -36 0
-32 -33 0
-32 -34 0
-32 -35 0
-32 -36 0
-33 -34 0
-33 -35 0
-33 -36 0
-34 -35 0
-34 -36 0
-35 -36 0
-37 -38 0
-37 -39 0
-37 -40 0
-37 -41 0
-37 -42 0
-38 -39 0
-38 -40 0
-38 -41 0
-38 -42 0
-39 -40 0
-39 -41 0
-39 -42 0
-40 -41 0
-40 -42 0
-41 -42 0
-43 -44 0
-43 -45 0
-43 -46 0
-43 -47 0
-43 -48 0
-44 -45 0
-44 -46 0
-44 -47 0
-44 -48 0
-45 -46 0
-45 -47 0
-45 -48 0
-46 -47 0
-46 -48 0
-47 -48 0
-49 -50 0
-49 -51 0
-49 -52 0
-49 -53 0
-49 -54 0
-50 -51 0
-50 -52 0
-50 -53 0
-50 -54 0
-51 -52 0
-51 -53 0
-51 -54 0
-52 -53 0
-52 -54 0
-53 -54 0
-55 -56 0
-55 -57 0
-55 -58 0
-55 -59 0
-55 -60 0
-56 -57 0
-56 -58 0
-56 -59 0
-56 -60 0
-57 -58 0
-57 -59 0
-57 -60 0
-58 -59 0
-58 -60 0
-59 -60 0
-61 -62 0
-61 -63 0
-61 -64 0
-61 -65 0
-61 -66 0
-62 -63 0
-62 -64 0
-62 -65 0
-62 -66 0
-63 -64 0
-63 -65 0
-63 -66 0
-64 -65 0
-64 -66 0
-65 -66 0
-67 -68 0
-67 -69 0
-67 -70 0
-67 -71 0
-67 -72 0
-68 -69 0
-68 -70 0
-68 -71 0
-68 -72 0
-69 -70 0
-69 -71 0
-69 -72 0
-70 -71 0
-70 -72 0
-71 -72 0
-73 1 7 0
-91 37 43 0
-79 13 19 0
-97 49 55 0
-85 25 31 0
-103 61 67 0
-74 2 8 0
-92 38 44 0
-80 14 20 0
-98 50 56 0
-86 26 32 0
-104 62 68 0
-75 3 9 0
-93 39 45 0
-81 15 21 0
-99 51 57 0
-87 27 33 0
-105 63 69 0
-76 4 10 0
-94 40 46 0
-82 16 22 0
-100 52 58 0
-88 28 34 0
-106 64 70 0
-77 5 11 0
-95 41 47 0
-83 17 23 0
-101 53 59 0
-89 29 35 0
-107 65 71 0
-78 6 12 0
-96 42 48 0
-84 18 24 0
-102 54 60 0
-90 30 36 0
-108 66 72 0
-73 -74 -91 -92 0
-73 -74 -97 -98 0
-73 -74 -103 -104 0
-73 -75 -91 -93 0
-73 -75 -97 -99 0
-73 -75 -103 -105 0
-73 -76 -91 -94 0
-73 -76 -97 -100 0
-73 -76 -103 -106 0
-73 -77 -91 -95 0
-73 -77 -97 -101 0
-73 -77 -103 -107 0
-73 -78 -91 -96 0
-73 -78 -97 -102 0
-73 -78 -103 -108 0
-74 -75 -92 -93 0
-74 -75 -98 -99 0
-74 -75 -104 -105 0
-74 -76 -92 -94 0
-74 -76 -98 -100 0
-74 -76 -104 -106 0
-74 -77 -92 -95 0
-74 -77 -98 -101 0
-74 -77 -104 -107 0
-74 -78 -92 -96 0
-74 -78 -98 -102 0
-74 -78 -104 -108 0
-75 -76 -93 -94 0
-75 -76 -99 -100 0
-75 -76 -105 -106 0
-75 -77 -93 -95 0
-75 -77 -99 -101 0
-75 -77 -105 -107 0
-75 -78 -93 -96 0
-75 -78 -99 -102 0
-75 -78 -105 -108 0
-76 -77 -94 -95 0
-76 -77 -100 -101 0
-76 -77 -106 -107 0
-76 -78 -94 -96 0
-76 -78 -100 -102 0
-76 -78 -106 -108 0
-77 -78 -95 -96 0
-77 -78 -101 -102 0
-77 -78 -107 -108 0
-79 -80 -91 -92 0
-79 -80 -97 -98 0
-79 -80 -103 -104 0
-79 -81 -91 -93 0
-79 -81 -97 -99 0
-79 -81 -103 -105 0
-79 -82 -91 -94 0
-79 -82 -97 -100 0
-79 -82 -103 -106 0
-79 -83 -91 -95 0
-79 -83 -97 -101 0
-79 -83 -103 -107 0
-79 -84 -91 -96 0
-79 -84 -97 -102 0
-79 -84 -103 -108 0
-80 -81 -92 -93 0
-80 -81 -98 -99 0
-80 -81 -104 -105 0
-80 -82 -92 -94 0
-80 -82 -98 -100 0
-80 -82 -104 -106 0
-80 -83 -92 -95 0
-80 -83 -98 -101 0
-80 -83 -104 -107 0
-80 -84 -92 -96 0
-80 -84 -98 -102 0
-80 -84 -104 -108 0
-81 -82 -93 -94 0
-81 -82 -99 -100 0
-81 -82 -105 -106 0
-81 -83 -93 -95 0
-81 -83 -99 -101 0
-81 -83 -105 -107 0
-81 -84 -93 -96 0
-81 -84 -99 -102 0
-81 -84 -105 -108 0
-82 -83 -94 -95 0
-82 -83 -100 -101 0
-82 -83 -106 -107 0
-82 -84 -94 -96 0
-82 -84 -100 -102 0
-82 -84 -106 -108 0
-83 -84 -95 -96 0
-83 -84 -101 -102 0
-83 -84 -107 -108 0
-85 -86 -91 -92 0
-85 -86 -97 -98 0
-85 -86 -103 -104 0
-85 -87 -91 -93 0
-85 -87 -97 -99 0
-85 -87 -103 -105 0
-85 -88 -91 -94 0
-85 -88 -97 -100 0
-85 -88 -103 -106 0
-85 -89 -91 -95 0
-85 -89 -97 -101 0
-85 -89 -103 -107 0
-85 -90 -91 -96 0
-85 -90 -97 -102 0
-85 -90 -103 -108 0
-86 -87 -92 -93 0
-86 -87 -98 -99 0
-86 -87 -104 -105 0
-86 -88 -92 -94 0
-86 -88 -98 -100 0
-86 -88 -104 -106 0
-86 -89 -92 -95 0
-86 -89 -98 -101 0
-86 -89 -104 -107 0
-86 -90 -92 -96 0
-86 -90 -98 -102 0
-86 -90 -104 -108 0
-87 -88 -93 -94 0
-87 -88 -99 -100 0
-87 -88 -105 -106 0
-87 -89 -93 -95 0
-87 -89 -99 -101 0
-87 -89 -105 -107 0
-87 -90 -93 -96 0
-87 -90 -99 -102 0
-87 -90 -105 -108 0
-88 -89 -94 -95 0
-88 -89 -100 -101 0
-88 -89 -106 -107 0
-88 -90 -94 -96 0
-88 -90 -100 -102 0
-88 -90 -106 -108 0
-89 -90 -95 -96 0
-89 -90 -101 -102 0
-89 -90 -107 -108 0
-1 -7 0
-37 -43 0
-13 -19 0
-49 -55 0
-25 -31 0
-61 -67 0
-2 -7 0
-2 -8 0
-38 -43 0
-38 -44 0
-14 -19 0
-14 -20 0
-50 -55 0
-50 -56 0
-26 -31 0
-26 -32 0
-62 -67 0
-62 -68 0
-3 -7 0
-3 -8 0
-3 -9 0
-39 -43 0
-39 -44 0
-39 -45 0
-15 -19 0
-15 -20 0
-15 -21 0
-51 -55 0
-51 -56 0
-51 -57 0
-27 -31 0
-27 -32 0
-27 -33 0
-63 -67 0
-63 -68 0
-63 -69 0
-4 -7 0
-4 -8 0
-4 -9 0
-4 -10 0
-40 -43 0
-40 -44 0
-40 -45 0
-40 -46 0
-16 -19 0
-16 -20 0
-16 -21 0
-16 -22 0
-52 -55 0
-52 -56 0
-52 -57 0
-52 -58 0
-28 -31 0
-28 -32 0
-28 -33 0
-28 -34 0
-64 -67 0
-64 -68 0
-64 -69 0
-64 -70 0
-5 -7 0
-5 -8 0
-5 -9 0
-5 -10 0
-5 -11 0
-41 -43 0
-41 -44 0
-41 -45 0
-41 -46 0
-41 -47 0
-17 -19 0
-17 -20 0
-17 -21 0
-17 -22 0
-17 -23 0
-53 -55 0
-53 -56 0
-53 -57 0
-53 -58 0
-53 -59 0
-29 -31 0
-29 -32 0
-29 -33 0
-29 -34 0
-29 -35 0
-65 -67 0
-65 -68 0
-65 -69 0
-65 -70 0
-65 -71 0
-6 -7 0
-6 -8 0
-6 -9 0
-6 -10 0
-6 -11 0
-6 -12 0
-42 -43 0
-42 -44 0
-42 -45 0
-42 -46 0
-42 -47 0
-42 -48 0
-18 -19 0
-18 -20 0
-18 -21 0
-18 -22 0
-18 -23 0
-18 -24 0
-54 -55 0
-54 -56 0
-54 -57 0
-54 -58 0
-54 -59 0
-54 -60 0
-30 -31 0
-30 -32 0
-30 -33 0
-30 -34 0
-30 -35 0
-30 -36 0
-66 -67 0
-66 -68 0
-66 -69 0
-66 -70 0
-66 -71 0
-66 -72 0
-2 -13 0
-38 -49 0
-14 -25 0
-50 -61 0
-3 -13 0
-3 -14 0
-39 -49 0
-39 -50 0
-15 -25 0
-15 -26 0
-51 -61 0
-51 -62 0
-4 -13 0
-4 -14 0
-4 -15 0
-40 -49 0
-40 -50 0
-40 -51 0
-16 -25 0
-16 -26 0
-16 -27 0
-52 -61 0
-52 -62 0
-52 -63 0
-5 -13 0
-5 -14 0
-5 -15 0
-5 -16 0
-41 -49 0
-41 -50 0
-41 -51 0
-41 -52 0
-17 -25 0
-17 -26 0
-17 -27 0
-17 -28 0
-53 -61 0
-53 -62 0
-53 -63 0
-53 -64 0
-6 -13 0
-6 -14 0
-6 -15 0
-6 -16 0
-6 -17 0
-42 -49 0
-42 -50 0
-42 -51 0
-42 -52 0
-42 -53 0
-18 -25 0
-18 -26 0
-18 -27 0
-18 -28 0
-18 -29 0
-54 -61 0
-54 -62 0
-54 -63 0
-54 -64 0
-54 -65 0
-7 -43 0
-8 -43 0
-8 -44 0
-9 -43 0
-9 -44 0
-9 -45 0
-10 -43 0
-10 -44 0
-10 -45 0
-10 -46 0
-11 -43 0
-11 -44 0
-11 -45 0
-11 -46 0
-11 -47 0
-12 -43 0
-12 -44 0
-12 -45 0
-12 -46 0
-12 -47 0
-12 -48 0
